Version identifier: 22.1.0.0 | 2022-03-09 | 1a383f8ce
CPXPARAM_Threads                                 1
CPXPARAM_MIP_Strategy_VariableSelect             3
CPXPARAM_TimeLimit                               599.99992796200002
1 of 1 MIP starts provided solutions.
MIP start 'm1' defined initial solution with objective 83.0000.
Tried aggregator 1 time.
MIP Presolve eliminated 17 rows and 0 columns.
MIP Presolve modified 160 coefficients.
Reduced MIP has 1809 rows, 7800 columns, and 147896 nonzeros.
Reduced MIP has 7800 binaries, 0 generals, 0 SOSs, and 0 indicators.
Presolve time = 0.13 sec. (185.47 ticks)
Probing time = 0.03 sec. (29.56 ticks)
Tried aggregator 1 time.
Detecting symmetries...
Reduced MIP has 1809 rows, 7800 columns, and 147896 nonzeros.
Reduced MIP has 7800 binaries, 0 generals, 0 SOSs, and 0 indicators.
Presolve time = 0.10 sec. (141.20 ticks)
Probing time = 0.03 sec. (29.56 ticks)
Clique table members: 374.
MIP emphasis: balance optimality and feasibility.
MIP search method: dynamic search.
Parallel mode: none, using 1 thread.
Root relaxation solution time = 0.08 sec. (89.69 ticks)

        Nodes                                         Cuts/
   Node  Left     Objective  IInf  Best Integer    Best Bound    ItCnt     Gap

*     0+    0                           83.0000    45150.0000              --- 
      0     0      300.0000    22       83.0000      300.0000     1020  261.45%
*     0+    0                          300.0000      300.0000             0.00%
      0     0        cutoff            300.0000      300.0000     1020    0.00%
Elapsed time = 0.53 sec. (612.74 ticks, tree = 0.01 MB, solutions = 2)

Root node processing (before b&c):
  Real time             =    0.53 sec. (613.51 ticks)
Sequential b&c:
  Real time             =    0.00 sec. (0.00 ticks)
                          ------------
Total (root+branch&cut) =    0.53 sec. (613.51 ticks)
Primal:	300
Dual:	300
Status:	Optimal
Time:	0.55
Sequence:
	12
	1
	24
	22
	15
	20
	4
	23
	21
	8
	9
	11
	10
	6
	10
	5
	12
	6
	21
	6
	21
	0
	3
	0
	7
	8
	0
	4
	1
	20
	21
	1
	3
	7
	21
	11
	4
	20
	21
	10
	20
	20
	20
	17
	9
	15
	21
	12
	8
	21
	7
	7
	20
	20
	13
	1
	21
	9
	22
	12
	11
	23
	6
	23
	5
	20
	3
	5
	24
	3
	12
	17
	14
	16
	11
	7
	3
	3
	16
	3
	13
	22
	5
	3
	0
	19
	9
	17
	14
	16
	6
	8
	16
	13
	1
	1
	3
	5
	1
	13
	13
	0
	3
	0
	16
	1
	21
	3
	0
	13
	3
	5
	0
	6
	6
	6
	20
	6
	6
	4
	6
	16
	16
	16
	6
	16
	16
	6
	6
	23
	16
	23
	1
	12
	15
	13
	20
	9
	9
	9
	5
	12
	24
	24
	16
	3
	16
	16
	16
	6
	16
	16
	16
	18
	15
	6
	6
	16
	6
	6
	4
	3
	4
	9
	9
	14
	0
	15
	14
	13
	4
	4
	4
	4
	17
	22
	22
	16
	22
	12
	12
	6
	12
	13
	12
	21
	13
	13
	24
	2
	15
	8
	0
	3
	17
	3
	3
	0
	8
	23
	0
	15
	15
	0
	22
	21
	21
	20
	16
	24
	4
	18
	18
	8
	0
	4
	12
	17
	12
	3
	21
	1
	22
	12
	21
	20
	5
	6
	3
	3
	1
	6
	9
	13
	20
	20
	10
	20
	17
	3
	0
	22
	3
	12
	17
	3
	6
	5
	0
	4
	0
	3
	0
	0
	3
	20
	10
	5
	4
	4
	14
	1
	6
	8
	6
	0
	3
	17
	9
	9
	9
	0
	10
	8
	10
	6
	2
	2
	6
	9
	8
	11
	11
	3
	6
	1
	6
	14
	5
	6
	6
	14
	18
	13
	20
	2
	11
	4
	5
	6
